* Signature: 0xeb15b0f6f0508c8c
NAME lp_typeD_079
OBJSENSE MAX
ROWS
 N  OBJ
 L  c0      
 G  c1      
 G  c2      
 L  c_key_upper
 G  c_key_lower
 G  _chain_constr_1
 G  _chain_constr_2
 G  _chain_cycle
COLUMNS
    x0        OBJ       1.3511920371506503e+00
    x0        c0        1.9458065865505967e+00
    x0        c1        1.0196841571451296e+00
    x0        c2        1.8886769458622246e+00
    x0        c_key_upper  1.6610961578797308e+00
    x0        c_key_lower  1.6610961578797308e+00
    x1        OBJ       1.2243645424302676e+00
    x1        c0        9.6463564531047774e-01
    x1        c1        1.6217913022917037e+00
    x1        c2        9.5229707676073638e-01
    x1        c_key_upper  1.5066702149725766e+00
    x1        c_key_lower  1.5066702149725766e+00
    x2        OBJ       5.6168950286346964e-01
    x2        c0        9.0223296921071272e-01
    x2        c1        1.9313149444116755e+00
    x2        c2        6.8047651690752520e-01
    x2        c_key_upper  1.9609115678303715e+00
    x2        c_key_lower  1.9609115678303715e+00
    x3        OBJ       1.0207598237490596e+00
    x3        c0        1.1631029454360415e+00
    x3        c1        5.8756480371388609e-01
    x3        c2        9.8375765435052509e-01
    x3        c_key_upper  1.4313995954248835e+00
    x3        c_key_lower  1.4313995954248835e+00
    x4        OBJ       0.786394238998314
    x4        c0        1.0649850288464839e+00
    x4        c1        1.5416400332357081e+00
    x4        c2        8.2442428198325568e-01
    x4        c_key_upper  1.1980891076190816e+00
    x4        c_key_lower  1.1980891076190816e+00
    x5        OBJ       1.0567586533341906e+00
    x5        c0        5.4651149391579290e-01
    x5        c1        6.5519243994540655e-01
    x5        c2        1.8572253288502685e+00
    x5        c_key_upper  1.0477460377826295e+00
    x5        c_key_lower  1.0477460377826295e+00
    _chain_var_0  _chain_constr_1  -1
    _chain_var_0  _chain_cycle  1
    _chain_var_1  _chain_constr_1  1
    _chain_var_1  _chain_constr_2  -1
    _chain_var_2  _chain_constr_2  1
    _chain_var_2  _chain_cycle  -1
RHS
    RHS1      c0        3.0423823654118365e+01
    RHS1      c1        8.68524516884603
    RHS1      c2        7.8733114955401344e+00
    RHS1      c_key_upper  4.4029563407546362e+01
    RHS1      c_key_lower  2.2014781703773181e+01
    RHS1      _chain_constr_1  10
    RHS1      _chain_constr_2  10
    RHS1      _chain_cycle  10
BOUNDS
 UP BND1      x0        10
 UP BND1      x1        10
 UP BND1      x2        10
 UP BND1      x3        10
 UP BND1      x4        10
 UP BND1      x5        10
 UP BND1      _chain_var_0  100
 UP BND1      _chain_var_1  100
 UP BND1      _chain_var_2  100
ENDATA
